
(set-logic ALL) 

(declare-datatype MyList ((Nil) (Cons (head Real) (tail MyList)) )) 
(declare-fun l0 () MyList) 
(declare-fun l1 () MyList) 
(declare-fun l2 () MyList) 
(declare-fun l3 () MyList) 
(declare-fun i0 () Real) 
(declare-fun i1 () Real) 
(assert (not (= l0 Nil)) )
(assert (= l3 l3) )
(assert (is-Nil l2) )
(assert (not (= l0 Nil)) )
(assert (and (is-Cons Nil) (= l1 Nil) (= l1 Nil) (= l2 Nil)) )
(assert (and (= l2 Nil) (is-Cons l0)) )
(assert (not (= l3 Nil)) )
(assert (or (= l0 Nil) (is-Nil l3) (is-Nil l3) (= l0 Nil)) )
(check-sat)
